\ LP format - for model browsing. Use MPS format to capture full model detail.
Maximize
  cum_prob_j_2_k_0_s_0 + cum_prob_j_2_k_0_s_1 + cum_prob_j_2_k_0_s_2
   + cum_prob_j_2_k_0_s_3 + cum_prob_j_2_k_0_s_4 + cum_prob_j_2_k_0_s_5
   + cum_prob_j_2_k_0_s_6 + cum_prob_j_2_k_0_s_7 + cum_prob_j_2_k_0_s_8
   + cum_prob_j_2_k_0_s_9 + cum_prob_j_2_k_0_s_10 + cum_prob_j_2_k_0_s_11
   + cum_prob_j_2_k_0_s_12 + cum_prob_j_2_k_0_s_13 + cum_prob_j_2_k_0_s_14
   + cum_prob_j_2_k_0_s_15 + cum_prob_j_2_k_0_s_16 + cum_prob_j_2_k_0_s_17
   + cum_prob_j_2_k_0_s_18 + cum_prob_j_2_k_0_s_19 + cum_prob_j_2_k_0_s_20
   + cum_prob_j_2_k_0_s_21 + cum_prob_j_2_k_0_s_22 + cum_prob_j_2_k_0_s_23
   + cum_prob_j_2_k_0_s_24 + cum_prob_j_2_k_0_s_25 + cum_prob_j_2_k_0_s_26
   + cum_prob_j_2_k_1_s_0 + cum_prob_j_2_k_1_s_1 + cum_prob_j_2_k_1_s_2
   + cum_prob_j_2_k_1_s_3 + cum_prob_j_2_k_1_s_4 + cum_prob_j_2_k_1_s_5
   + cum_prob_j_2_k_1_s_6 + cum_prob_j_2_k_1_s_7 + cum_prob_j_2_k_1_s_8
   + cum_prob_j_2_k_1_s_9 + cum_prob_j_2_k_1_s_10 + cum_prob_j_2_k_1_s_11
   + cum_prob_j_2_k_1_s_12 + cum_prob_j_2_k_1_s_13 + cum_prob_j_2_k_1_s_14
   + cum_prob_j_2_k_1_s_15 + cum_prob_j_2_k_1_s_16 + cum_prob_j_2_k_1_s_17
   + cum_prob_j_2_k_1_s_18 + cum_prob_j_2_k_1_s_19 + cum_prob_j_2_k_1_s_20
   + cum_prob_j_2_k_1_s_21 + cum_prob_j_2_k_1_s_22 + cum_prob_j_2_k_1_s_23
   + cum_prob_j_2_k_1_s_24 + cum_prob_j_2_k_1_s_25 + cum_prob_j_2_k_1_s_26
   + cum_prob_j_2_k_2_s_0 + cum_prob_j_2_k_2_s_1 + cum_prob_j_2_k_2_s_2
   + cum_prob_j_2_k_2_s_3 + cum_prob_j_2_k_2_s_4 + cum_prob_j_2_k_2_s_5
   + cum_prob_j_2_k_2_s_6 + cum_prob_j_2_k_2_s_7 + cum_prob_j_2_k_2_s_8
   + cum_prob_j_2_k_2_s_9 + cum_prob_j_2_k_2_s_10 + cum_prob_j_2_k_2_s_11
   + cum_prob_j_2_k_2_s_12 + cum_prob_j_2_k_2_s_13 + cum_prob_j_2_k_2_s_14
   + cum_prob_j_2_k_2_s_15 + cum_prob_j_2_k_2_s_16 + cum_prob_j_2_k_2_s_17
   + cum_prob_j_2_k_2_s_18 + cum_prob_j_2_k_2_s_19 + cum_prob_j_2_k_2_s_20
   + cum_prob_j_2_k_2_s_21 + cum_prob_j_2_k_2_s_22 + cum_prob_j_2_k_2_s_23
   + cum_prob_j_2_k_2_s_24 + cum_prob_j_2_k_2_s_25 + cum_prob_j_2_k_2_s_26
Subject To
 first_component_s_0_k_0: - 368.9995457101158 allocVar_j_0_k_0
   + cum_prob_j_0_k_0_s_0 = 0
 first_component_s_0_k_1: - 34.69603396138793 allocVar_j_0_k_1
   + cum_prob_j_0_k_1_s_0 = 0
 first_component_s_0_k_2: - 5.89731343231607 allocVar_j_0_k_2
   + cum_prob_j_0_k_2_s_0 = 0
 first_component_s_1_k_0: - 1413.907249879604 allocVar_j_0_k_0
   + cum_prob_j_0_k_0_s_1 = 0
 first_component_s_1_k_1: - 132.9458925638197 allocVar_j_0_k_1
   + cum_prob_j_0_k_1_s_1 = 0
 first_component_s_1_k_2: - 22.59692271630749 allocVar_j_0_k_2
   + cum_prob_j_0_k_2_s_1 = 0
 first_component_s_2_k_0: - 2184.781521599794 allocVar_j_0_k_0
   + cum_prob_j_0_k_0_s_2 = 0
 first_component_s_2_k_1: - 205.4291251924465 allocVar_j_0_k_1
   + cum_prob_j_0_k_1_s_2 = 0
 first_component_s_2_k_2: - 34.91695738869088 allocVar_j_0_k_2
   + cum_prob_j_0_k_2_s_2 = 0
 first_component_s_3_k_0: - 1403.851324943841 allocVar_j_0_k_0
   + cum_prob_j_0_k_0_s_3 = 0
 first_component_s_3_k_1: - 132.0003610119774 allocVar_j_0_k_1
   + cum_prob_j_0_k_1_s_3 = 0
 first_component_s_3_k_2: - 22.43620994067545 allocVar_j_0_k_2
   + cum_prob_j_0_k_2_s_3 = 0
 first_component_s_4_k_0: - 2431.24389464417 allocVar_j_0_k_0
   + cum_prob_j_0_k_0_s_4 = 0
 first_component_s_4_k_1: - 228.6033186698276 allocVar_j_0_k_1
   + cum_prob_j_0_k_1_s_4 = 0
 first_component_s_4_k_2: - 38.85589411642585 allocVar_j_0_k_2
   + cum_prob_j_0_k_2_s_4 = 0
 first_component_s_5_k_0: - 3088.692716839108 allocVar_j_0_k_0
   + cum_prob_j_0_k_0_s_5 = 0
 first_component_s_5_k_1: - 290.4214616132072 allocVar_j_0_k_1
   + cum_prob_j_0_k_1_s_5 = 0
 first_component_s_5_k_2: - 49.3631747222304 allocVar_j_0_k_2
   + cum_prob_j_0_k_2_s_5 = 0
 first_component_s_6_k_0: - 2137.464357663524 allocVar_j_0_k_0
   + cum_prob_j_0_k_0_s_6 = 0
 first_component_s_6_k_1: - 200.9800196421131 allocVar_j_0_k_1
   + cum_prob_j_0_k_1_s_6 = 0
 first_component_s_6_k_2: - 34.16073925860223 allocVar_j_0_k_2
   + cum_prob_j_0_k_2_s_6 = 0
 first_component_s_7_k_0: - 3118.979948881517 allocVar_j_0_k_0
   + cum_prob_j_0_k_0_s_7 = 0
 first_component_s_7_k_1: - 293.2692885109817 allocVar_j_0_k_1
   + cum_prob_j_0_k_1_s_7 = 0
 first_component_s_7_k_2: - 49.84722220258066 allocVar_j_0_k_2
   + cum_prob_j_0_k_2_s_7 = 0
 first_component_s_8_k_0: - 3637.022959700612 allocVar_j_0_k_0
   + cum_prob_j_0_k_0_s_8 = 0
 first_component_s_8_k_1: - 341.9794782816739 allocVar_j_0_k_1
   + cum_prob_j_0_k_1_s_8 = 0
 first_component_s_8_k_2: - 58.12653322542118 allocVar_j_0_k_2
   + cum_prob_j_0_k_2_s_8 = 0
 first_component_s_9_k_1: - 695.9448581335174 allocVar_j_0_k_1
   + cum_prob_j_0_k_1_s_9 = 0
 first_component_s_9_k_2: - 361.4975434932004 allocVar_j_0_k_2
   + cum_prob_j_0_k_2_s_9 = 0
 first_component_s_10_k_1: - 1138.283791230383 allocVar_j_0_k_1
   + cum_prob_j_0_k_1_s_10 = 0
 first_component_s_10_k_2: - 591.2635024439916 allocVar_j_0_k_2
   + cum_prob_j_0_k_2_s_10 = 0
 first_component_s_11_k_1: - 1441.633841093413 allocVar_j_0_k_1
   + cum_prob_j_0_k_1_s_11 = 0
 first_component_s_11_k_2: - 748.8338854454947 allocVar_j_0_k_2
   + cum_prob_j_0_k_2_s_11 = 0
 first_component_s_12_k_1: - 1131.002801404263 allocVar_j_0_k_1
   + cum_prob_j_0_k_1_s_12 = 0
 first_component_s_12_k_2: - 587.481507497725 allocVar_j_0_k_2
   + cum_prob_j_0_k_2_s_12 = 0
 first_component_s_13_k_1: - 1562.43594096442 allocVar_j_0_k_1
   + cum_prob_j_0_k_1_s_13 = 0
 first_component_s_13_k_2: - 811.5826245759321 allocVar_j_0_k_2
   + cum_prob_j_0_k_2_s_13 = 0
 first_component_s_14_k_1: - 1815.993289756794 allocVar_j_0_k_1
   + cum_prob_j_0_k_1_s_14 = 0
 first_component_s_14_k_2: - 943.2889769569516 allocVar_j_0_k_2
   + cum_prob_j_0_k_2_s_14 = 0
 first_component_s_15_k_1: - 1424.41699080621 allocVar_j_0_k_1
   + cum_prob_j_0_k_1_s_15 = 0
 first_component_s_15_k_2: - 739.8908650139537 allocVar_j_0_k_2
   + cum_prob_j_0_k_2_s_15 = 0
 first_component_s_16_k_1: - 1826.909281736037 allocVar_j_0_k_1
   + cum_prob_j_0_k_1_s_16 = 0
 first_component_s_16_k_2: - 948.9591162491236 allocVar_j_0_k_2
   + cum_prob_j_0_k_2_s_16 = 0
 first_component_s_17_k_1: - 2007.736872079231 allocVar_j_0_k_1
   + cum_prob_j_0_k_1_s_17 = 0
 first_component_s_17_k_2: - 1042.887146524647 allocVar_j_0_k_2
   + cum_prob_j_0_k_2_s_17 = 0
 first_component_s_18_k_1: - 1181.115123000931 allocVar_j_0_k_1
   + cum_prob_j_0_k_1_s_18 = 0
 first_component_s_18_k_2: - 1874.903388747228 allocVar_j_0_k_2
   + cum_prob_j_0_k_2_s_18 = 0
 first_component_s_19_k_1: - 1645.776051237153 allocVar_j_0_k_1
   + cum_prob_j_0_k_1_s_19 = 0
 first_component_s_19_k_2: - 2612.506635037926 allocVar_j_0_k_2
   + cum_prob_j_0_k_2_s_19 = 0
 first_component_s_20_k_1: - 1890.824871170455 allocVar_j_0_k_1
   + cum_prob_j_0_k_1_s_20 = 0
 first_component_s_20_k_2: - 3001.497389583616 allocVar_j_0_k_2
   + cum_prob_j_0_k_2_s_20 = 0
 first_component_s_21_k_1: - 1638.583636616652 allocVar_j_0_k_1
   + cum_prob_j_0_k_1_s_21 = 0
 first_component_s_21_k_2: - 2601.089388503152 allocVar_j_0_k_2
   + cum_prob_j_0_k_2_s_21 = 0
 first_component_s_22_k_1: - 2066.148125306603 allocVar_j_0_k_1
   + cum_prob_j_0_k_1_s_22 = 0
 first_component_s_22_k_2: - 3279.805707633826 allocVar_j_0_k_2
   + cum_prob_j_0_k_2_s_22 = 0
 first_component_s_23_k_1: - 2273.518324142427 allocVar_j_0_k_1
   + cum_prob_j_0_k_1_s_23 = 0
 first_component_s_23_k_2: - 3608.985379412668 allocVar_j_0_k_2
   + cum_prob_j_0_k_2_s_23 = 0
 first_component_s_24_k_1: - 1893.155124329423 allocVar_j_0_k_1
   + cum_prob_j_0_k_1_s_24 = 0
 first_component_s_24_k_2: - 3005.196435899514 allocVar_j_0_k_2
   + cum_prob_j_0_k_2_s_24 = 0
 first_component_s_25_k_1: - 2264.029737213041 allocVar_j_0_k_1
   + cum_prob_j_0_k_1_s_25 = 0
 first_component_s_25_k_2: - 3593.923186539268 allocVar_j_0_k_2
   + cum_prob_j_0_k_2_s_25 = 0
 first_component_s_26_k_1: - 2361.213005880567 allocVar_j_0_k_1
   + cum_prob_j_0_k_1_s_26 = 0
 first_component_s_26_k_2: - 3748.192009455808 allocVar_j_0_k_2
   + cum_prob_j_0_k_2_s_26 = 0
 prob_chain_j_1_s_0: cum_prob_j_0_k_0_s_0 + cum_prob_j_0_k_1_s_0
   + cum_prob_j_0_k_2_s_0 - cum_prob_j_1_k_0_s_0
   - 10.6352082235325 cum_prob_j_1_k_1_s_0
   - 62.57078751963121 cum_prob_j_1_k_2_s_0 = 0
 prob_chain_j_2_s_0: cum_prob_j_1_k_0_s_0 + cum_prob_j_1_k_1_s_0
   + cum_prob_j_1_k_2_s_0 - cum_prob_j_2_k_0_s_0
   - 10.6352082235325 cum_prob_j_2_k_1_s_0
   - 62.57078751963121 cum_prob_j_2_k_2_s_0 = 0
 prob_chain_j_1_s_1: cum_prob_j_0_k_0_s_1 + cum_prob_j_0_k_1_s_1
   + cum_prob_j_0_k_2_s_1 - cum_prob_j_1_k_0_s_1
   - 10.6352082235325 cum_prob_j_1_k_1_s_1
   - 62.57078751963121 cum_prob_j_1_k_2_s_1 = 0
 prob_chain_j_2_s_1: cum_prob_j_1_k_0_s_1 + cum_prob_j_1_k_1_s_1
   + cum_prob_j_1_k_2_s_1 - 2.351708133493532 cum_prob_j_2_k_1_s_1
   - 4.527442060934448 cum_prob_j_2_k_2_s_1 = 0
 prob_chain_j_1_s_2: cum_prob_j_0_k_0_s_2 + cum_prob_j_0_k_1_s_2
   + cum_prob_j_0_k_2_s_2 - cum_prob_j_1_k_0_s_2
   - 10.6352082235325 cum_prob_j_1_k_1_s_2
   - 62.57078751963121 cum_prob_j_1_k_2_s_2 = 0
 prob_chain_j_2_s_2: cum_prob_j_1_k_0_s_2 + cum_prob_j_1_k_1_s_2
   + cum_prob_j_1_k_2_s_2 - 2.080083823051905 cum_prob_j_2_k_1_s_2
   - 1.310370697104448 cum_prob_j_2_k_2_s_2 = 0
 prob_chain_j_1_s_3: cum_prob_j_0_k_0_s_3 + cum_prob_j_0_k_1_s_3
   + cum_prob_j_0_k_2_s_3 - 2.351708133493532 cum_prob_j_1_k_1_s_3
   - 4.527442060934448 cum_prob_j_1_k_2_s_3 = 0
 prob_chain_j_2_s_3: cum_prob_j_1_k_1_s_3 + cum_prob_j_1_k_2_s_3
   - cum_prob_j_2_k_0_s_3 - 10.6352082235325 cum_prob_j_2_k_1_s_3
   - 62.57078751963121 cum_prob_j_2_k_2_s_3 = 0
 prob_chain_j_1_s_4: cum_prob_j_0_k_0_s_4 + cum_prob_j_0_k_1_s_4
   + cum_prob_j_0_k_2_s_4 - 2.351708133493532 cum_prob_j_1_k_1_s_4
   - 4.527442060934448 cum_prob_j_1_k_2_s_4 = 0
 prob_chain_j_2_s_4: cum_prob_j_1_k_1_s_4 + cum_prob_j_1_k_2_s_4
   - 2.351708133493532 cum_prob_j_2_k_1_s_4
   - 4.527442060934448 cum_prob_j_2_k_2_s_4 = 0
 prob_chain_j_1_s_5: cum_prob_j_0_k_0_s_5 + cum_prob_j_0_k_1_s_5
   + cum_prob_j_0_k_2_s_5 - 2.351708133493532 cum_prob_j_1_k_1_s_5
   - 4.527442060934448 cum_prob_j_1_k_2_s_5 = 0
 prob_chain_j_2_s_5: cum_prob_j_1_k_1_s_5 + cum_prob_j_1_k_2_s_5
   - 2.080083823051905 cum_prob_j_2_k_1_s_5
   - 1.310370697104448 cum_prob_j_2_k_2_s_5 = 0
 prob_chain_j_1_s_6: cum_prob_j_0_k_0_s_6 + cum_prob_j_0_k_1_s_6
   + cum_prob_j_0_k_2_s_6 - 2.080083823051905 cum_prob_j_1_k_1_s_6
   - 1.310370697104448 cum_prob_j_1_k_2_s_6 = 0
 prob_chain_j_2_s_6: cum_prob_j_1_k_1_s_6 + cum_prob_j_1_k_2_s_6
   - cum_prob_j_2_k_0_s_6 - 10.6352082235325 cum_prob_j_2_k_1_s_6
   - 62.57078751963121 cum_prob_j_2_k_2_s_6 = 0
 prob_chain_j_1_s_7: cum_prob_j_0_k_0_s_7 + cum_prob_j_0_k_1_s_7
   + cum_prob_j_0_k_2_s_7 - 2.080083823051905 cum_prob_j_1_k_1_s_7
   - 1.310370697104448 cum_prob_j_1_k_2_s_7 = 0
 prob_chain_j_2_s_7: cum_prob_j_1_k_1_s_7 + cum_prob_j_1_k_2_s_7
   - 2.351708133493532 cum_prob_j_2_k_1_s_7
   - 4.527442060934448 cum_prob_j_2_k_2_s_7 = 0
 prob_chain_j_1_s_8: cum_prob_j_0_k_0_s_8 + cum_prob_j_0_k_1_s_8
   + cum_prob_j_0_k_2_s_8 - 2.080083823051905 cum_prob_j_1_k_1_s_8
   - 1.310370697104448 cum_prob_j_1_k_2_s_8 = 0
 prob_chain_j_2_s_8: cum_prob_j_1_k_1_s_8 + cum_prob_j_1_k_2_s_8
   - 2.080083823051905 cum_prob_j_2_k_1_s_8
   - 1.310370697104448 cum_prob_j_2_k_2_s_8 = 0
 prob_chain_j_1_s_9: cum_prob_j_0_k_1_s_9 + cum_prob_j_0_k_2_s_9
   - cum_prob_j_1_k_0_s_9 - 10.6352082235325 cum_prob_j_1_k_1_s_9
   - 62.57078751963121 cum_prob_j_1_k_2_s_9 = 0
 prob_chain_j_2_s_9: cum_prob_j_1_k_0_s_9 + cum_prob_j_1_k_1_s_9
   + cum_prob_j_1_k_2_s_9 - cum_prob_j_2_k_0_s_9
   - 10.6352082235325 cum_prob_j_2_k_1_s_9
   - 62.57078751963121 cum_prob_j_2_k_2_s_9 = 0
 prob_chain_j_1_s_10: cum_prob_j_0_k_1_s_10 + cum_prob_j_0_k_2_s_10
   - cum_prob_j_1_k_0_s_10 - 10.6352082235325 cum_prob_j_1_k_1_s_10
   - 62.57078751963121 cum_prob_j_1_k_2_s_10 = 0
 prob_chain_j_2_s_10: cum_prob_j_1_k_0_s_10 + cum_prob_j_1_k_1_s_10
   + cum_prob_j_1_k_2_s_10 - 2.351708133493532 cum_prob_j_2_k_1_s_10
   - 4.527442060934448 cum_prob_j_2_k_2_s_10 = 0
 prob_chain_j_1_s_11: cum_prob_j_0_k_1_s_11 + cum_prob_j_0_k_2_s_11
   - cum_prob_j_1_k_0_s_11 - 10.6352082235325 cum_prob_j_1_k_1_s_11
   - 62.57078751963121 cum_prob_j_1_k_2_s_11 = 0
 prob_chain_j_2_s_11: cum_prob_j_1_k_0_s_11 + cum_prob_j_1_k_1_s_11
   + cum_prob_j_1_k_2_s_11 - 2.080083823051905 cum_prob_j_2_k_1_s_11
   - 1.310370697104448 cum_prob_j_2_k_2_s_11 = 0
 prob_chain_j_1_s_12: cum_prob_j_0_k_1_s_12 + cum_prob_j_0_k_2_s_12
   - 2.351708133493532 cum_prob_j_1_k_1_s_12
   - 4.527442060934448 cum_prob_j_1_k_2_s_12 = 0
 prob_chain_j_2_s_12: cum_prob_j_1_k_1_s_12 + cum_prob_j_1_k_2_s_12
   - cum_prob_j_2_k_0_s_12 - 10.6352082235325 cum_prob_j_2_k_1_s_12
   - 62.57078751963121 cum_prob_j_2_k_2_s_12 = 0
 prob_chain_j_1_s_13: cum_prob_j_0_k_1_s_13 + cum_prob_j_0_k_2_s_13
   - 2.351708133493532 cum_prob_j_1_k_1_s_13
   - 4.527442060934448 cum_prob_j_1_k_2_s_13 = 0
 prob_chain_j_2_s_13: cum_prob_j_1_k_1_s_13 + cum_prob_j_1_k_2_s_13
   - 2.351708133493532 cum_prob_j_2_k_1_s_13
   - 4.527442060934448 cum_prob_j_2_k_2_s_13 = 0
 prob_chain_j_1_s_14: cum_prob_j_0_k_1_s_14 + cum_prob_j_0_k_2_s_14
   - 2.351708133493532 cum_prob_j_1_k_1_s_14
   - 4.527442060934448 cum_prob_j_1_k_2_s_14 = 0
 prob_chain_j_2_s_14: cum_prob_j_1_k_1_s_14 + cum_prob_j_1_k_2_s_14
   - 2.080083823051905 cum_prob_j_2_k_1_s_14
   - 1.310370697104448 cum_prob_j_2_k_2_s_14 = 0
 prob_chain_j_1_s_15: cum_prob_j_0_k_1_s_15 + cum_prob_j_0_k_2_s_15
   - 2.080083823051905 cum_prob_j_1_k_1_s_15
   - 1.310370697104448 cum_prob_j_1_k_2_s_15 = 0
 prob_chain_j_2_s_15: cum_prob_j_1_k_1_s_15 + cum_prob_j_1_k_2_s_15
   - cum_prob_j_2_k_0_s_15 - 10.6352082235325 cum_prob_j_2_k_1_s_15
   - 62.57078751963121 cum_prob_j_2_k_2_s_15 = 0
 prob_chain_j_1_s_16: cum_prob_j_0_k_1_s_16 + cum_prob_j_0_k_2_s_16
   - 2.080083823051905 cum_prob_j_1_k_1_s_16
   - 1.310370697104448 cum_prob_j_1_k_2_s_16 = 0
 prob_chain_j_2_s_16: cum_prob_j_1_k_1_s_16 + cum_prob_j_1_k_2_s_16
   - 2.351708133493532 cum_prob_j_2_k_1_s_16
   - 4.527442060934448 cum_prob_j_2_k_2_s_16 = 0
 prob_chain_j_1_s_17: cum_prob_j_0_k_1_s_17 + cum_prob_j_0_k_2_s_17
   - 2.080083823051905 cum_prob_j_1_k_1_s_17
   - 1.310370697104448 cum_prob_j_1_k_2_s_17 = 0
 prob_chain_j_2_s_17: cum_prob_j_1_k_1_s_17 + cum_prob_j_1_k_2_s_17
   - 2.080083823051905 cum_prob_j_2_k_1_s_17
   - 1.310370697104448 cum_prob_j_2_k_2_s_17 = 0
 prob_chain_j_1_s_18: cum_prob_j_0_k_1_s_18 + cum_prob_j_0_k_2_s_18
   - cum_prob_j_1_k_0_s_18 - 10.6352082235325 cum_prob_j_1_k_1_s_18
   - 62.57078751963121 cum_prob_j_1_k_2_s_18 = 0
 prob_chain_j_2_s_18: cum_prob_j_1_k_0_s_18 + cum_prob_j_1_k_1_s_18
   + cum_prob_j_1_k_2_s_18 - cum_prob_j_2_k_0_s_18
   - 10.6352082235325 cum_prob_j_2_k_1_s_18
   - 62.57078751963121 cum_prob_j_2_k_2_s_18 = 0
 prob_chain_j_1_s_19: cum_prob_j_0_k_1_s_19 + cum_prob_j_0_k_2_s_19
   - cum_prob_j_1_k_0_s_19 - 10.6352082235325 cum_prob_j_1_k_1_s_19
   - 62.57078751963121 cum_prob_j_1_k_2_s_19 = 0
 prob_chain_j_2_s_19: cum_prob_j_1_k_0_s_19 + cum_prob_j_1_k_1_s_19
   + cum_prob_j_1_k_2_s_19 - 2.351708133493532 cum_prob_j_2_k_1_s_19
   - 4.527442060934448 cum_prob_j_2_k_2_s_19 = 0
 prob_chain_j_1_s_20: cum_prob_j_0_k_1_s_20 + cum_prob_j_0_k_2_s_20
   - cum_prob_j_1_k_0_s_20 - 10.6352082235325 cum_prob_j_1_k_1_s_20
   - 62.57078751963121 cum_prob_j_1_k_2_s_20 = 0
 prob_chain_j_2_s_20: cum_prob_j_1_k_0_s_20 + cum_prob_j_1_k_1_s_20
   + cum_prob_j_1_k_2_s_20 - 2.080083823051905 cum_prob_j_2_k_1_s_20
   - 1.310370697104448 cum_prob_j_2_k_2_s_20 = 0
 prob_chain_j_1_s_21: cum_prob_j_0_k_1_s_21 + cum_prob_j_0_k_2_s_21
   - 2.351708133493532 cum_prob_j_1_k_1_s_21
   - 4.527442060934448 cum_prob_j_1_k_2_s_21 = 0
 prob_chain_j_2_s_21: cum_prob_j_1_k_1_s_21 + cum_prob_j_1_k_2_s_21
   - cum_prob_j_2_k_0_s_21 - 10.6352082235325 cum_prob_j_2_k_1_s_21
   - 62.57078751963121 cum_prob_j_2_k_2_s_21 = 0
 prob_chain_j_1_s_22: cum_prob_j_0_k_1_s_22 + cum_prob_j_0_k_2_s_22
   - 2.351708133493532 cum_prob_j_1_k_1_s_22
   - 4.527442060934448 cum_prob_j_1_k_2_s_22 = 0
 prob_chain_j_2_s_22: cum_prob_j_1_k_1_s_22 + cum_prob_j_1_k_2_s_22
   - 2.351708133493532 cum_prob_j_2_k_1_s_22
   - 4.527442060934448 cum_prob_j_2_k_2_s_22 = 0
 prob_chain_j_1_s_23: cum_prob_j_0_k_1_s_23 + cum_prob_j_0_k_2_s_23
   - 2.351708133493532 cum_prob_j_1_k_1_s_23
   - 4.527442060934448 cum_prob_j_1_k_2_s_23 = 0
 prob_chain_j_2_s_23: cum_prob_j_1_k_1_s_23 + cum_prob_j_1_k_2_s_23
   - 2.080083823051905 cum_prob_j_2_k_1_s_23
   - 1.310370697104448 cum_prob_j_2_k_2_s_23 = 0
 prob_chain_j_1_s_24: cum_prob_j_0_k_1_s_24 + cum_prob_j_0_k_2_s_24
   - 2.080083823051905 cum_prob_j_1_k_1_s_24
   - 1.310370697104448 cum_prob_j_1_k_2_s_24 = 0
 prob_chain_j_2_s_24: cum_prob_j_1_k_1_s_24 + cum_prob_j_1_k_2_s_24
   - cum_prob_j_2_k_0_s_24 - 10.6352082235325 cum_prob_j_2_k_1_s_24
   - 62.57078751963121 cum_prob_j_2_k_2_s_24 = 0
 prob_chain_j_1_s_25: cum_prob_j_0_k_1_s_25 + cum_prob_j_0_k_2_s_25
   - 2.080083823051905 cum_prob_j_1_k_1_s_25
   - 1.310370697104448 cum_prob_j_1_k_2_s_25 = 0
 prob_chain_j_2_s_25: cum_prob_j_1_k_1_s_25 + cum_prob_j_1_k_2_s_25
   - 2.351708133493532 cum_prob_j_2_k_1_s_25
   - 4.527442060934448 cum_prob_j_2_k_2_s_25 = 0
 prob_chain_j_1_s_26: cum_prob_j_0_k_1_s_26 + cum_prob_j_0_k_2_s_26
   - 2.080083823051905 cum_prob_j_1_k_1_s_26
   - 1.310370697104448 cum_prob_j_1_k_2_s_26 = 0
 prob_chain_j_2_s_26: cum_prob_j_1_k_1_s_26 + cum_prob_j_1_k_2_s_26
   - 2.080083823051905 cum_prob_j_2_k_1_s_26
   - 1.310370697104448 cum_prob_j_2_k_2_s_26 = 0
 VUB_j_0_k_0_s_0: - 368.9995457101158 allocVar_j_0_k_0
   + cum_prob_j_0_k_0_s_0 <= 0
 VUB_j_0_k_1_s_0: - 368.9995457101158 allocVar_j_0_k_1
   + cum_prob_j_0_k_1_s_0 <= 0
 VUB_j_0_k_2_s_0: - 368.9995457101158 allocVar_j_0_k_2
   + cum_prob_j_0_k_2_s_0 <= 0
 VUB_j_1_k_0_s_0: - 368.9995457101158 allocVar_j_1_k_0
   + cum_prob_j_1_k_0_s_0 <= 0
 VUB_j_1_k_1_s_0: - 368.9995457101158 allocVar_j_1_k_1
   + cum_prob_j_1_k_1_s_0 <= 0
 VUB_j_1_k_2_s_0: - 368.9995457101158 allocVar_j_1_k_2
   + cum_prob_j_1_k_2_s_0 <= 0
 VUB_j_2_k_0_s_0: - 368.9995457101158 allocVar_j_2_k_0
   + cum_prob_j_2_k_0_s_0 <= 0
 VUB_j_2_k_1_s_0: - 368.9995457101158 allocVar_j_2_k_1
   + cum_prob_j_2_k_1_s_0 <= 0
 VUB_j_2_k_2_s_0: - 368.9995457101158 allocVar_j_2_k_2
   + cum_prob_j_2_k_2_s_0 <= 0
 VUB_j_0_k_0_s_1: - 1413.907249879604 allocVar_j_0_k_0
   + cum_prob_j_0_k_0_s_1 <= 0
 VUB_j_0_k_1_s_1: - 1413.907249879604 allocVar_j_0_k_1
   + cum_prob_j_0_k_1_s_1 <= 0
 VUB_j_0_k_2_s_1: - 1413.907249879604 allocVar_j_0_k_2
   + cum_prob_j_0_k_2_s_1 <= 0
 VUB_j_1_k_0_s_1: - 1413.907249879604 allocVar_j_1_k_0
   + cum_prob_j_1_k_0_s_1 <= 0
 VUB_j_1_k_1_s_1: - 1413.907249879604 allocVar_j_1_k_1
   + cum_prob_j_1_k_1_s_1 <= 0
 VUB_j_1_k_2_s_1: - 1413.907249879604 allocVar_j_1_k_2
   + cum_prob_j_1_k_2_s_1 <= 0
 VUB_j_2_k_0_s_1: - 1413.907249879604 allocVar_j_2_k_0
   + cum_prob_j_2_k_0_s_1 <= 0
 VUB_j_2_k_1_s_1: - 1413.907249879604 allocVar_j_2_k_1
   + cum_prob_j_2_k_1_s_1 <= 0
 VUB_j_2_k_2_s_1: - 1413.907249879604 allocVar_j_2_k_2
   + cum_prob_j_2_k_2_s_1 <= 0
 VUB_j_0_k_0_s_2: - 2184.781521599794 allocVar_j_0_k_0
   + cum_prob_j_0_k_0_s_2 <= 0
 VUB_j_0_k_1_s_2: - 2184.781521599794 allocVar_j_0_k_1
   + cum_prob_j_0_k_1_s_2 <= 0
 VUB_j_0_k_2_s_2: - 2184.781521599794 allocVar_j_0_k_2
   + cum_prob_j_0_k_2_s_2 <= 0
 VUB_j_1_k_0_s_2: - 2184.781521599794 allocVar_j_1_k_0
   + cum_prob_j_1_k_0_s_2 <= 0
 VUB_j_1_k_1_s_2: - 2184.781521599794 allocVar_j_1_k_1
   + cum_prob_j_1_k_1_s_2 <= 0
 VUB_j_1_k_2_s_2: - 2184.781521599794 allocVar_j_1_k_2
   + cum_prob_j_1_k_2_s_2 <= 0
 VUB_j_2_k_0_s_2: - 2184.781521599794 allocVar_j_2_k_0
   + cum_prob_j_2_k_0_s_2 <= 0
 VUB_j_2_k_1_s_2: - 2184.781521599794 allocVar_j_2_k_1
   + cum_prob_j_2_k_1_s_2 <= 0
 VUB_j_2_k_2_s_2: - 2184.781521599794 allocVar_j_2_k_2
   + cum_prob_j_2_k_2_s_2 <= 0
 VUB_j_0_k_0_s_3: - 1403.851324943841 allocVar_j_0_k_0
   + cum_prob_j_0_k_0_s_3 <= 0
 VUB_j_0_k_1_s_3: - 1403.851324943841 allocVar_j_0_k_1
   + cum_prob_j_0_k_1_s_3 <= 0
 VUB_j_0_k_2_s_3: - 1403.851324943841 allocVar_j_0_k_2
   + cum_prob_j_0_k_2_s_3 <= 0
 VUB_j_1_k_0_s_3: - 1403.851324943841 allocVar_j_1_k_0
   + cum_prob_j_1_k_0_s_3 <= 0
 VUB_j_1_k_1_s_3: - 1403.851324943841 allocVar_j_1_k_1
   + cum_prob_j_1_k_1_s_3 <= 0
 VUB_j_1_k_2_s_3: - 1403.851324943841 allocVar_j_1_k_2
   + cum_prob_j_1_k_2_s_3 <= 0
 VUB_j_2_k_0_s_3: - 1403.851324943841 allocVar_j_2_k_0
   + cum_prob_j_2_k_0_s_3 <= 0
 VUB_j_2_k_1_s_3: - 1403.851324943841 allocVar_j_2_k_1
   + cum_prob_j_2_k_1_s_3 <= 0
 VUB_j_2_k_2_s_3: - 1403.851324943841 allocVar_j_2_k_2
   + cum_prob_j_2_k_2_s_3 <= 0
 VUB_j_0_k_0_s_4: - 2431.24389464417 allocVar_j_0_k_0
   + cum_prob_j_0_k_0_s_4 <= 0
 VUB_j_0_k_1_s_4: - 2431.24389464417 allocVar_j_0_k_1
   + cum_prob_j_0_k_1_s_4 <= 0
 VUB_j_0_k_2_s_4: - 2431.24389464417 allocVar_j_0_k_2
   + cum_prob_j_0_k_2_s_4 <= 0
 VUB_j_1_k_0_s_4: - 2431.24389464417 allocVar_j_1_k_0
   + cum_prob_j_1_k_0_s_4 <= 0
 VUB_j_1_k_1_s_4: - 2431.24389464417 allocVar_j_1_k_1
   + cum_prob_j_1_k_1_s_4 <= 0
 VUB_j_1_k_2_s_4: - 2431.24389464417 allocVar_j_1_k_2
   + cum_prob_j_1_k_2_s_4 <= 0
 VUB_j_2_k_0_s_4: - 2431.24389464417 allocVar_j_2_k_0
   + cum_prob_j_2_k_0_s_4 <= 0
 VUB_j_2_k_1_s_4: - 2431.24389464417 allocVar_j_2_k_1
   + cum_prob_j_2_k_1_s_4 <= 0
 VUB_j_2_k_2_s_4: - 2431.24389464417 allocVar_j_2_k_2
   + cum_prob_j_2_k_2_s_4 <= 0
 VUB_j_0_k_0_s_5: - 3088.692716839108 allocVar_j_0_k_0
   + cum_prob_j_0_k_0_s_5 <= 0
 VUB_j_0_k_1_s_5: - 3088.692716839108 allocVar_j_0_k_1
   + cum_prob_j_0_k_1_s_5 <= 0
 VUB_j_0_k_2_s_5: - 3088.692716839108 allocVar_j_0_k_2
   + cum_prob_j_0_k_2_s_5 <= 0
 VUB_j_1_k_0_s_5: - 3088.692716839108 allocVar_j_1_k_0
   + cum_prob_j_1_k_0_s_5 <= 0
 VUB_j_1_k_1_s_5: - 3088.692716839108 allocVar_j_1_k_1
   + cum_prob_j_1_k_1_s_5 <= 0
 VUB_j_1_k_2_s_5: - 3088.692716839108 allocVar_j_1_k_2
   + cum_prob_j_1_k_2_s_5 <= 0
 VUB_j_2_k_0_s_5: - 3088.692716839108 allocVar_j_2_k_0
   + cum_prob_j_2_k_0_s_5 <= 0
 VUB_j_2_k_1_s_5: - 3088.692716839108 allocVar_j_2_k_1
   + cum_prob_j_2_k_1_s_5 <= 0
 VUB_j_2_k_2_s_5: - 3088.692716839108 allocVar_j_2_k_2
   + cum_prob_j_2_k_2_s_5 <= 0
 VUB_j_0_k_0_s_6: - 2137.464357663524 allocVar_j_0_k_0
   + cum_prob_j_0_k_0_s_6 <= 0
 VUB_j_0_k_1_s_6: - 2137.464357663524 allocVar_j_0_k_1
   + cum_prob_j_0_k_1_s_6 <= 0
 VUB_j_0_k_2_s_6: - 2137.464357663524 allocVar_j_0_k_2
   + cum_prob_j_0_k_2_s_6 <= 0
 VUB_j_1_k_0_s_6: - 2137.464357663524 allocVar_j_1_k_0
   + cum_prob_j_1_k_0_s_6 <= 0
 VUB_j_1_k_1_s_6: - 2137.464357663524 allocVar_j_1_k_1
   + cum_prob_j_1_k_1_s_6 <= 0
 VUB_j_1_k_2_s_6: - 2137.464357663524 allocVar_j_1_k_2
   + cum_prob_j_1_k_2_s_6 <= 0
 VUB_j_2_k_0_s_6: - 2137.464357663524 allocVar_j_2_k_0
   + cum_prob_j_2_k_0_s_6 <= 0
 VUB_j_2_k_1_s_6: - 2137.464357663524 allocVar_j_2_k_1
   + cum_prob_j_2_k_1_s_6 <= 0
 VUB_j_2_k_2_s_6: - 2137.464357663524 allocVar_j_2_k_2
   + cum_prob_j_2_k_2_s_6 <= 0
 VUB_j_0_k_0_s_7: - 3118.979948881517 allocVar_j_0_k_0
   + cum_prob_j_0_k_0_s_7 <= 0
 VUB_j_0_k_1_s_7: - 3118.979948881517 allocVar_j_0_k_1
   + cum_prob_j_0_k_1_s_7 <= 0
 VUB_j_0_k_2_s_7: - 3118.979948881517 allocVar_j_0_k_2
   + cum_prob_j_0_k_2_s_7 <= 0
 VUB_j_1_k_0_s_7: - 3118.979948881517 allocVar_j_1_k_0
   + cum_prob_j_1_k_0_s_7 <= 0
 VUB_j_1_k_1_s_7: - 3118.979948881517 allocVar_j_1_k_1
   + cum_prob_j_1_k_1_s_7 <= 0
 VUB_j_1_k_2_s_7: - 3118.979948881517 allocVar_j_1_k_2
   + cum_prob_j_1_k_2_s_7 <= 0
 VUB_j_2_k_0_s_7: - 3118.979948881517 allocVar_j_2_k_0
   + cum_prob_j_2_k_0_s_7 <= 0
 VUB_j_2_k_1_s_7: - 3118.979948881517 allocVar_j_2_k_1
   + cum_prob_j_2_k_1_s_7 <= 0
 VUB_j_2_k_2_s_7: - 3118.979948881517 allocVar_j_2_k_2
   + cum_prob_j_2_k_2_s_7 <= 0
 VUB_j_0_k_0_s_8: - 3637.022959700612 allocVar_j_0_k_0
   + cum_prob_j_0_k_0_s_8 <= 0
 VUB_j_0_k_1_s_8: - 3637.022959700612 allocVar_j_0_k_1
   + cum_prob_j_0_k_1_s_8 <= 0
 VUB_j_0_k_2_s_8: - 3637.022959700612 allocVar_j_0_k_2
   + cum_prob_j_0_k_2_s_8 <= 0
 VUB_j_1_k_0_s_8: - 3637.022959700612 allocVar_j_1_k_0
   + cum_prob_j_1_k_0_s_8 <= 0
 VUB_j_1_k_1_s_8: - 3637.022959700612 allocVar_j_1_k_1
   + cum_prob_j_1_k_1_s_8 <= 0
 VUB_j_1_k_2_s_8: - 3637.022959700612 allocVar_j_1_k_2
   + cum_prob_j_1_k_2_s_8 <= 0
 VUB_j_2_k_0_s_8: - 3637.022959700612 allocVar_j_2_k_0
   + cum_prob_j_2_k_0_s_8 <= 0
 VUB_j_2_k_1_s_8: - 3637.022959700612 allocVar_j_2_k_1
   + cum_prob_j_2_k_1_s_8 <= 0
 VUB_j_2_k_2_s_8: - 3637.022959700612 allocVar_j_2_k_2
   + cum_prob_j_2_k_2_s_8 <= 0
 VUB_j_0_k_0_s_9: - 1636.659183335595 allocVar_j_0_k_0
   + cum_prob_j_0_k_0_s_9 <= 0
 VUB_j_0_k_1_s_9: - 1636.659183335595 allocVar_j_0_k_1
   + cum_prob_j_0_k_1_s_9 <= 0
 VUB_j_0_k_2_s_9: - 1636.659183335595 allocVar_j_0_k_2
   + cum_prob_j_0_k_2_s_9 <= 0
 VUB_j_1_k_0_s_9: - 1636.659183335595 allocVar_j_1_k_0
   + cum_prob_j_1_k_0_s_9 <= 0
 VUB_j_1_k_1_s_9: - 1636.659183335595 allocVar_j_1_k_1
   + cum_prob_j_1_k_1_s_9 <= 0
 VUB_j_1_k_2_s_9: - 1636.659183335595 allocVar_j_1_k_2
   + cum_prob_j_1_k_2_s_9 <= 0
 VUB_j_2_k_0_s_9: - 1636.659183335595 allocVar_j_2_k_0
   + cum_prob_j_2_k_0_s_9 <= 0
 VUB_j_2_k_1_s_9: - 1636.659183335595 allocVar_j_2_k_1
   + cum_prob_j_2_k_1_s_9 <= 0
 VUB_j_2_k_2_s_9: - 1636.659183335595 allocVar_j_2_k_2
   + cum_prob_j_2_k_2_s_9 <= 0
 VUB_j_0_k_0_s_10: - 2676.911250060345 allocVar_j_0_k_0
   + cum_prob_j_0_k_0_s_10 <= 0
 VUB_j_0_k_1_s_10: - 2676.911250060345 allocVar_j_0_k_1
   + cum_prob_j_0_k_1_s_10 <= 0
 VUB_j_0_k_2_s_10: - 2676.911250060345 allocVar_j_0_k_2
   + cum_prob_j_0_k_2_s_10 <= 0
 VUB_j_1_k_0_s_10: - 2676.911250060345 allocVar_j_1_k_0
   + cum_prob_j_1_k_0_s_10 <= 0
 VUB_j_1_k_1_s_10: - 2676.911250060345 allocVar_j_1_k_1
   + cum_prob_j_1_k_1_s_10 <= 0
 VUB_j_1_k_2_s_10: - 2676.911250060345 allocVar_j_1_k_2
   + cum_prob_j_1_k_2_s_10 <= 0
 VUB_j_2_k_0_s_10: - 2676.911250060345 allocVar_j_2_k_0
   + cum_prob_j_2_k_0_s_10 <= 0
 VUB_j_2_k_1_s_10: - 2676.911250060345 allocVar_j_2_k_1
   + cum_prob_j_2_k_1_s_10 <= 0
 VUB_j_2_k_2_s_10: - 2676.911250060345 allocVar_j_2_k_2
   + cum_prob_j_2_k_2_s_10 <= 0
 VUB_j_0_k_0_s_11: - 3390.302029618901 allocVar_j_0_k_0
   + cum_prob_j_0_k_0_s_11 <= 0
 VUB_j_0_k_1_s_11: - 3390.302029618901 allocVar_j_0_k_1
   + cum_prob_j_0_k_1_s_11 <= 0
 VUB_j_0_k_2_s_11: - 3390.302029618901 allocVar_j_0_k_2
   + cum_prob_j_0_k_2_s_11 <= 0
 VUB_j_1_k_0_s_11: - 3390.302029618901 allocVar_j_1_k_0
   + cum_prob_j_1_k_0_s_11 <= 0
 VUB_j_1_k_1_s_11: - 3390.302029618901 allocVar_j_1_k_1
   + cum_prob_j_1_k_1_s_11 <= 0
 VUB_j_1_k_2_s_11: - 3390.302029618901 allocVar_j_1_k_2
   + cum_prob_j_1_k_2_s_11 <= 0
 VUB_j_2_k_0_s_11: - 3390.302029618901 allocVar_j_2_k_0
   + cum_prob_j_2_k_0_s_11 <= 0
 VUB_j_2_k_1_s_11: - 3390.302029618901 allocVar_j_2_k_1
   + cum_prob_j_2_k_1_s_11 <= 0
 VUB_j_2_k_2_s_11: - 3390.302029618901 allocVar_j_2_k_2
   + cum_prob_j_2_k_2_s_11 <= 0
 VUB_j_0_k_0_s_12: - 2659.788487066377 allocVar_j_0_k_0
   + cum_prob_j_0_k_0_s_12 <= 0
 VUB_j_0_k_1_s_12: - 2659.788487066377 allocVar_j_0_k_1
   + cum_prob_j_0_k_1_s_12 <= 0
 VUB_j_0_k_2_s_12: - 2659.788487066377 allocVar_j_0_k_2
   + cum_prob_j_0_k_2_s_12 <= 0
 VUB_j_1_k_0_s_12: - 2659.788487066377 allocVar_j_1_k_0
   + cum_prob_j_1_k_0_s_12 <= 0
 VUB_j_1_k_1_s_12: - 2659.788487066377 allocVar_j_1_k_1
   + cum_prob_j_1_k_1_s_12 <= 0
 VUB_j_1_k_2_s_12: - 2659.788487066377 allocVar_j_1_k_2
   + cum_prob_j_1_k_2_s_12 <= 0
 VUB_j_2_k_0_s_12: - 2659.788487066377 allocVar_j_2_k_0
   + cum_prob_j_2_k_0_s_12 <= 0
 VUB_j_2_k_1_s_12: - 2659.788487066377 allocVar_j_2_k_1
   + cum_prob_j_2_k_1_s_12 <= 0
 VUB_j_2_k_2_s_12: - 2659.788487066377 allocVar_j_2_k_2
   + cum_prob_j_2_k_2_s_12 <= 0
 VUB_j_0_k_0_s_13: - 3674.393310428646 allocVar_j_0_k_0
   + cum_prob_j_0_k_0_s_13 <= 0
 VUB_j_0_k_1_s_13: - 3674.393310428646 allocVar_j_0_k_1
   + cum_prob_j_0_k_1_s_13 <= 0
 VUB_j_0_k_2_s_13: - 3674.393310428646 allocVar_j_0_k_2
   + cum_prob_j_0_k_2_s_13 <= 0
 VUB_j_1_k_0_s_13: - 3674.393310428646 allocVar_j_1_k_0
   + cum_prob_j_1_k_0_s_13 <= 0
 VUB_j_1_k_1_s_13: - 3674.393310428646 allocVar_j_1_k_1
   + cum_prob_j_1_k_1_s_13 <= 0
 VUB_j_1_k_2_s_13: - 3674.393310428646 allocVar_j_1_k_2
   + cum_prob_j_1_k_2_s_13 <= 0
 VUB_j_2_k_0_s_13: - 3674.393310428646 allocVar_j_2_k_0
   + cum_prob_j_2_k_0_s_13 <= 0
 VUB_j_2_k_1_s_13: - 3674.393310428646 allocVar_j_2_k_1
   + cum_prob_j_2_k_1_s_13 <= 0
 VUB_j_2_k_2_s_13: - 3674.393310428646 allocVar_j_2_k_2
   + cum_prob_j_2_k_2_s_13 <= 0
 VUB_j_0_k_0_s_14: - 4270.686189890728 allocVar_j_0_k_0
   + cum_prob_j_0_k_0_s_14 <= 0
 VUB_j_0_k_1_s_14: - 4270.686189890728 allocVar_j_0_k_1
   + cum_prob_j_0_k_1_s_14 <= 0
 VUB_j_0_k_2_s_14: - 4270.686189890728 allocVar_j_0_k_2
   + cum_prob_j_0_k_2_s_14 <= 0
 VUB_j_1_k_0_s_14: - 4270.686189890728 allocVar_j_1_k_0
   + cum_prob_j_1_k_0_s_14 <= 0
 VUB_j_1_k_1_s_14: - 4270.686189890728 allocVar_j_1_k_1
   + cum_prob_j_1_k_1_s_14 <= 0
 VUB_j_1_k_2_s_14: - 4270.686189890728 allocVar_j_1_k_2
   + cum_prob_j_1_k_2_s_14 <= 0
 VUB_j_2_k_0_s_14: - 4270.686189890728 allocVar_j_2_k_0
   + cum_prob_j_2_k_0_s_14 <= 0
 VUB_j_2_k_1_s_14: - 4270.686189890728 allocVar_j_2_k_1
   + cum_prob_j_2_k_1_s_14 <= 0
 VUB_j_2_k_2_s_14: - 4270.686189890728 allocVar_j_2_k_2
   + cum_prob_j_2_k_2_s_14 <= 0
 VUB_j_0_k_0_s_15: - 3349.813022765346 allocVar_j_0_k_0
   + cum_prob_j_0_k_0_s_15 <= 0
 VUB_j_0_k_1_s_15: - 3349.813022765346 allocVar_j_0_k_1
   + cum_prob_j_0_k_1_s_15 <= 0
 VUB_j_0_k_2_s_15: - 3349.813022765346 allocVar_j_0_k_2
   + cum_prob_j_0_k_2_s_15 <= 0
 VUB_j_1_k_0_s_15: - 3349.813022765346 allocVar_j_1_k_0
   + cum_prob_j_1_k_0_s_15 <= 0
 VUB_j_1_k_1_s_15: - 3349.813022765346 allocVar_j_1_k_1
   + cum_prob_j_1_k_1_s_15 <= 0
 VUB_j_1_k_2_s_15: - 3349.813022765346 allocVar_j_1_k_2
   + cum_prob_j_1_k_2_s_15 <= 0
 VUB_j_2_k_0_s_15: - 3349.813022765346 allocVar_j_2_k_0
   + cum_prob_j_2_k_0_s_15 <= 0
 VUB_j_2_k_1_s_15: - 3349.813022765346 allocVar_j_2_k_1
   + cum_prob_j_2_k_1_s_15 <= 0
 VUB_j_2_k_2_s_15: - 3349.813022765346 allocVar_j_2_k_2
   + cum_prob_j_2_k_2_s_15 <= 0
 VUB_j_0_k_0_s_16: - 4296.357417013464 allocVar_j_0_k_0
   + cum_prob_j_0_k_0_s_16 <= 0
 VUB_j_0_k_1_s_16: - 4296.357417013464 allocVar_j_0_k_1
   + cum_prob_j_0_k_1_s_16 <= 0
 VUB_j_0_k_2_s_16: - 4296.357417013464 allocVar_j_0_k_2
   + cum_prob_j_0_k_2_s_16 <= 0
 VUB_j_1_k_0_s_16: - 4296.357417013464 allocVar_j_1_k_0
   + cum_prob_j_1_k_0_s_16 <= 0
 VUB_j_1_k_1_s_16: - 4296.357417013464 allocVar_j_1_k_1
   + cum_prob_j_1_k_1_s_16 <= 0
 VUB_j_1_k_2_s_16: - 4296.357417013464 allocVar_j_1_k_2
   + cum_prob_j_1_k_2_s_16 <= 0
 VUB_j_2_k_0_s_16: - 4296.357417013464 allocVar_j_2_k_0
   + cum_prob_j_2_k_0_s_16 <= 0
 VUB_j_2_k_1_s_16: - 4296.357417013464 allocVar_j_2_k_1
   + cum_prob_j_2_k_1_s_16 <= 0
 VUB_j_2_k_2_s_16: - 4296.357417013464 allocVar_j_2_k_2
   + cum_prob_j_2_k_2_s_16 <= 0
 VUB_j_0_k_0_s_17: - 4721.611131983592 allocVar_j_0_k_0
   + cum_prob_j_0_k_0_s_17 <= 0
 VUB_j_0_k_1_s_17: - 4721.611131983592 allocVar_j_0_k_1
   + cum_prob_j_0_k_1_s_17 <= 0
 VUB_j_0_k_2_s_17: - 4721.611131983592 allocVar_j_0_k_2
   + cum_prob_j_0_k_2_s_17 <= 0
 VUB_j_1_k_0_s_17: - 4721.611131983592 allocVar_j_1_k_0
   + cum_prob_j_1_k_0_s_17 <= 0
 VUB_j_1_k_1_s_17: - 4721.611131983592 allocVar_j_1_k_1
   + cum_prob_j_1_k_1_s_17 <= 0
 VUB_j_1_k_2_s_17: - 4721.611131983592 allocVar_j_1_k_2
   + cum_prob_j_1_k_2_s_17 <= 0
 VUB_j_2_k_0_s_17: - 4721.611131983592 allocVar_j_2_k_0
   + cum_prob_j_2_k_0_s_17 <= 0
 VUB_j_2_k_1_s_17: - 4721.611131983592 allocVar_j_2_k_1
   + cum_prob_j_2_k_1_s_17 <= 0
 VUB_j_2_k_2_s_17: - 4721.611131983592 allocVar_j_2_k_2
   + cum_prob_j_2_k_2_s_17 <= 0
 VUB_j_0_k_0_s_18: - 2456.818460516197 allocVar_j_0_k_0
   + cum_prob_j_0_k_0_s_18 <= 0
 VUB_j_0_k_1_s_18: - 2456.818460516197 allocVar_j_0_k_1
   + cum_prob_j_0_k_1_s_18 <= 0
 VUB_j_0_k_2_s_18: - 2456.818460516197 allocVar_j_0_k_2
   + cum_prob_j_0_k_2_s_18 <= 0
 VUB_j_1_k_0_s_18: - 2456.818460516197 allocVar_j_1_k_0
   + cum_prob_j_1_k_0_s_18 <= 0
 VUB_j_1_k_1_s_18: - 2456.818460516197 allocVar_j_1_k_1
   + cum_prob_j_1_k_1_s_18 <= 0
 VUB_j_1_k_2_s_18: - 2456.818460516197 allocVar_j_1_k_2
   + cum_prob_j_1_k_2_s_18 <= 0
 VUB_j_2_k_0_s_18: - 2456.818460516197 allocVar_j_2_k_0
   + cum_prob_j_2_k_0_s_18 <= 0
 VUB_j_2_k_1_s_18: - 2456.818460516197 allocVar_j_2_k_1
   + cum_prob_j_2_k_1_s_18 <= 0
 VUB_j_2_k_2_s_18: - 2456.818460516197 allocVar_j_2_k_2
   + cum_prob_j_2_k_2_s_18 <= 0
 VUB_j_0_k_0_s_19: - 3423.352140544643 allocVar_j_0_k_0
   + cum_prob_j_0_k_0_s_19 <= 0
 VUB_j_0_k_1_s_19: - 3423.352140544643 allocVar_j_0_k_1
   + cum_prob_j_0_k_1_s_19 <= 0
 VUB_j_0_k_2_s_19: - 3423.352140544643 allocVar_j_0_k_2
   + cum_prob_j_0_k_2_s_19 <= 0
 VUB_j_1_k_0_s_19: - 3423.352140544643 allocVar_j_1_k_0
   + cum_prob_j_1_k_0_s_19 <= 0
 VUB_j_1_k_1_s_19: - 3423.352140544643 allocVar_j_1_k_1
   + cum_prob_j_1_k_1_s_19 <= 0
 VUB_j_1_k_2_s_19: - 3423.352140544643 allocVar_j_1_k_2
   + cum_prob_j_1_k_2_s_19 <= 0
 VUB_j_2_k_0_s_19: - 3423.352140544643 allocVar_j_2_k_0
   + cum_prob_j_2_k_0_s_19 <= 0
 VUB_j_2_k_1_s_19: - 3423.352140544643 allocVar_j_2_k_1
   + cum_prob_j_2_k_1_s_19 <= 0
 VUB_j_2_k_2_s_19: - 3423.352140544643 allocVar_j_2_k_2
   + cum_prob_j_2_k_2_s_19 <= 0
 VUB_j_0_k_0_s_20: - 3933.074226745864 allocVar_j_0_k_0
   + cum_prob_j_0_k_0_s_20 <= 0
 VUB_j_0_k_1_s_20: - 3933.074226745864 allocVar_j_0_k_1
   + cum_prob_j_0_k_1_s_20 <= 0
 VUB_j_0_k_2_s_20: - 3933.074226745864 allocVar_j_0_k_2
   + cum_prob_j_0_k_2_s_20 <= 0
 VUB_j_1_k_0_s_20: - 3933.074226745864 allocVar_j_1_k_0
   + cum_prob_j_1_k_0_s_20 <= 0
 VUB_j_1_k_1_s_20: - 3933.074226745864 allocVar_j_1_k_1
   + cum_prob_j_1_k_1_s_20 <= 0
 VUB_j_1_k_2_s_20: - 3933.074226745864 allocVar_j_1_k_2
   + cum_prob_j_1_k_2_s_20 <= 0
 VUB_j_2_k_0_s_20: - 3933.074226745864 allocVar_j_2_k_0
   + cum_prob_j_2_k_0_s_20 <= 0
 VUB_j_2_k_1_s_20: - 3933.074226745864 allocVar_j_2_k_1
   + cum_prob_j_2_k_1_s_20 <= 0
 VUB_j_2_k_2_s_20: - 3933.074226745864 allocVar_j_2_k_2
   + cum_prob_j_2_k_2_s_20 <= 0
 VUB_j_0_k_0_s_21: - 3408.391315243858 allocVar_j_0_k_0
   + cum_prob_j_0_k_0_s_21 <= 0
 VUB_j_0_k_1_s_21: - 3408.391315243858 allocVar_j_0_k_1
   + cum_prob_j_0_k_1_s_21 <= 0
 VUB_j_0_k_2_s_21: - 3408.391315243858 allocVar_j_0_k_2
   + cum_prob_j_0_k_2_s_21 <= 0
 VUB_j_1_k_0_s_21: - 3408.391315243858 allocVar_j_1_k_0
   + cum_prob_j_1_k_0_s_21 <= 0
 VUB_j_1_k_1_s_21: - 3408.391315243858 allocVar_j_1_k_1
   + cum_prob_j_1_k_1_s_21 <= 0
 VUB_j_1_k_2_s_21: - 3408.391315243858 allocVar_j_1_k_2
   + cum_prob_j_1_k_2_s_21 <= 0
 VUB_j_2_k_0_s_21: - 3408.391315243858 allocVar_j_2_k_0
   + cum_prob_j_2_k_0_s_21 <= 0
 VUB_j_2_k_1_s_21: - 3408.391315243858 allocVar_j_2_k_1
   + cum_prob_j_2_k_1_s_21 <= 0
 VUB_j_2_k_2_s_21: - 3408.391315243858 allocVar_j_2_k_2
   + cum_prob_j_2_k_2_s_21 <= 0
 VUB_j_0_k_0_s_22: - 4297.761291479284 allocVar_j_0_k_0
   + cum_prob_j_0_k_0_s_22 <= 0
 VUB_j_0_k_1_s_22: - 4297.761291479284 allocVar_j_0_k_1
   + cum_prob_j_0_k_1_s_22 <= 0
 VUB_j_0_k_2_s_22: - 4297.761291479284 allocVar_j_0_k_2
   + cum_prob_j_0_k_2_s_22 <= 0
 VUB_j_1_k_0_s_22: - 4297.761291479284 allocVar_j_1_k_0
   + cum_prob_j_1_k_0_s_22 <= 0
 VUB_j_1_k_1_s_22: - 4297.761291479284 allocVar_j_1_k_1
   + cum_prob_j_1_k_1_s_22 <= 0
 VUB_j_1_k_2_s_22: - 4297.761291479284 allocVar_j_1_k_2
   + cum_prob_j_1_k_2_s_22 <= 0
 VUB_j_2_k_0_s_22: - 4297.761291479284 allocVar_j_2_k_0
   + cum_prob_j_2_k_0_s_22 <= 0
 VUB_j_2_k_1_s_22: - 4297.761291479284 allocVar_j_2_k_1
   + cum_prob_j_2_k_1_s_22 <= 0
 VUB_j_2_k_2_s_22: - 4297.761291479284 allocVar_j_2_k_2
   + cum_prob_j_2_k_2_s_22 <= 0
 VUB_j_0_k_0_s_23: - 4729.108687460739 allocVar_j_0_k_0
   + cum_prob_j_0_k_0_s_23 <= 0
 VUB_j_0_k_1_s_23: - 4729.108687460739 allocVar_j_0_k_1
   + cum_prob_j_0_k_1_s_23 <= 0
 VUB_j_0_k_2_s_23: - 4729.108687460739 allocVar_j_0_k_2
   + cum_prob_j_0_k_2_s_23 <= 0
 VUB_j_1_k_0_s_23: - 4729.108687460739 allocVar_j_1_k_0
   + cum_prob_j_1_k_0_s_23 <= 0
 VUB_j_1_k_1_s_23: - 4729.108687460739 allocVar_j_1_k_1
   + cum_prob_j_1_k_1_s_23 <= 0
 VUB_j_1_k_2_s_23: - 4729.108687460739 allocVar_j_1_k_2
   + cum_prob_j_1_k_2_s_23 <= 0
 VUB_j_2_k_0_s_23: - 4729.108687460739 allocVar_j_2_k_0
   + cum_prob_j_2_k_0_s_23 <= 0
 VUB_j_2_k_1_s_23: - 4729.108687460739 allocVar_j_2_k_1
   + cum_prob_j_2_k_1_s_23 <= 0
 VUB_j_2_k_2_s_23: - 4729.108687460739 allocVar_j_2_k_2
   + cum_prob_j_2_k_2_s_23 <= 0
 VUB_j_0_k_0_s_24: - 3937.92134864545 allocVar_j_0_k_0
   + cum_prob_j_0_k_0_s_24 <= 0
 VUB_j_0_k_1_s_24: - 3937.92134864545 allocVar_j_0_k_1
   + cum_prob_j_0_k_1_s_24 <= 0
 VUB_j_0_k_2_s_24: - 3937.92134864545 allocVar_j_0_k_2
   + cum_prob_j_0_k_2_s_24 <= 0
 VUB_j_1_k_0_s_24: - 3937.92134864545 allocVar_j_1_k_0
   + cum_prob_j_1_k_0_s_24 <= 0
 VUB_j_1_k_1_s_24: - 3937.92134864545 allocVar_j_1_k_1
   + cum_prob_j_1_k_1_s_24 <= 0
 VUB_j_1_k_2_s_24: - 3937.92134864545 allocVar_j_1_k_2
   + cum_prob_j_1_k_2_s_24 <= 0
 VUB_j_2_k_0_s_24: - 3937.92134864545 allocVar_j_2_k_0
   + cum_prob_j_2_k_0_s_24 <= 0
 VUB_j_2_k_1_s_24: - 3937.92134864545 allocVar_j_2_k_1
   + cum_prob_j_2_k_1_s_24 <= 0
 VUB_j_2_k_2_s_24: - 3937.92134864545 allocVar_j_2_k_2
   + cum_prob_j_2_k_2_s_24 <= 0
 VUB_j_0_k_0_s_25: - 4709.3716312853 allocVar_j_0_k_0
   + cum_prob_j_0_k_0_s_25 <= 0
 VUB_j_0_k_1_s_25: - 4709.3716312853 allocVar_j_0_k_1
   + cum_prob_j_0_k_1_s_25 <= 0
 VUB_j_0_k_2_s_25: - 4709.3716312853 allocVar_j_0_k_2
   + cum_prob_j_0_k_2_s_25 <= 0
 VUB_j_1_k_0_s_25: - 4709.3716312853 allocVar_j_1_k_0
   + cum_prob_j_1_k_0_s_25 <= 0
 VUB_j_1_k_1_s_25: - 4709.3716312853 allocVar_j_1_k_1
   + cum_prob_j_1_k_1_s_25 <= 0
 VUB_j_1_k_2_s_25: - 4709.3716312853 allocVar_j_1_k_2
   + cum_prob_j_1_k_2_s_25 <= 0
 VUB_j_2_k_0_s_25: - 4709.3716312853 allocVar_j_2_k_0
   + cum_prob_j_2_k_0_s_25 <= 0
 VUB_j_2_k_1_s_25: - 4709.3716312853 allocVar_j_2_k_1
   + cum_prob_j_2_k_1_s_25 <= 0
 VUB_j_2_k_2_s_25: - 4709.3716312853 allocVar_j_2_k_2
   + cum_prob_j_2_k_2_s_25 <= 0
 VUB_j_0_k_0_s_26: - 4911.520976311929 allocVar_j_0_k_0
   + cum_prob_j_0_k_0_s_26 <= 0
 VUB_j_0_k_1_s_26: - 4911.520976311929 allocVar_j_0_k_1
   + cum_prob_j_0_k_1_s_26 <= 0
 VUB_j_0_k_2_s_26: - 4911.520976311929 allocVar_j_0_k_2
   + cum_prob_j_0_k_2_s_26 <= 0
 VUB_j_1_k_0_s_26: - 4911.520976311929 allocVar_j_1_k_0
   + cum_prob_j_1_k_0_s_26 <= 0
 VUB_j_1_k_1_s_26: - 4911.520976311929 allocVar_j_1_k_1
   + cum_prob_j_1_k_1_s_26 <= 0
 VUB_j_1_k_2_s_26: - 4911.520976311929 allocVar_j_1_k_2
   + cum_prob_j_1_k_2_s_26 <= 0
 VUB_j_2_k_0_s_26: - 4911.520976311929 allocVar_j_2_k_0
   + cum_prob_j_2_k_0_s_26 <= 0
 VUB_j_2_k_1_s_26: - 4911.520976311929 allocVar_j_2_k_1
   + cum_prob_j_2_k_1_s_26 <= 0
 VUB_j_2_k_2_s_26: - 4911.520976311929 allocVar_j_2_k_2
   + cum_prob_j_2_k_2_s_26 <= 0
 multiple_choic_j_0: allocVar_j_0_k_0 + allocVar_j_0_k_1 + allocVar_j_0_k_2
   = 1
 multiple_choic_j_1: allocVar_j_1_k_0 + allocVar_j_1_k_1 + allocVar_j_1_k_2
   = 1
 multiple_choic_j_2: allocVar_j_2_k_0 + allocVar_j_2_k_1 + allocVar_j_2_k_2
   = 1
 budget: allocVar_j_0_k_1 + 2 allocVar_j_0_k_2 + allocVar_j_1_k_1
   + 2 allocVar_j_1_k_2 + allocVar_j_2_k_1 + 2 allocVar_j_2_k_2 <= 2
Bounds
Binaries
 allocVar_j_0_k_0 allocVar_j_0_k_1 allocVar_j_0_k_2 allocVar_j_1_k_0
 allocVar_j_1_k_1 allocVar_j_1_k_2 allocVar_j_2_k_0 allocVar_j_2_k_1
 allocVar_j_2_k_2
End
